solution status: optimal solution found
objective value:                          28502.85872
y#1                                                 1 	(obj:5700)
y#2                                                 1 	(obj:5700)
y#3                                                 1 	(obj:5700)
y#4                                                 1 	(obj:5700)
y#5                                                 1 	(obj:5700)
x#1#1                                               1 	(obj:0.04607)
x#2#4                                               1 	(obj:0.13056)
x#3#2                                               1 	(obj:0.03842)
x#4#3                                               1 	(obj:0.0595)
x#5#5                                               1 	(obj:0.02601)
x#6#1                                               1 	(obj:0.02652)
x#7#2                                               1 	(obj:0.04097)
x#8#1                                               1 	(obj:0.04692)
x#9#5                                               1 	(obj:0.01666)
x#10#2                                              1 	(obj:0.03349)
x#11#5                                              1 	(obj:0.07616)
x#12#4                                              1 	(obj:0.07718)
x#13#3                                              1 	(obj:0.07803)
x#14#1                                              1 	(obj:0.03009)
x#15#2                                              1 	(obj:0.03876)
x#16#3                                              1 	(obj:0.03383)
x#17#2                                              1 	(obj:0.04318)
x#18#1                                              1 	(obj:0.08364)
x#19#2                                              1 	(obj:0.0595)
x#20#4                                              1 	(obj:0.11424)
x#21#3                                              1 	(obj:0.02703)
x#22#4                                              1 	(obj:0.10217)
x#23#1                                              1 	(obj:0.02754)
x#24#4                                              1 	(obj:0.07412)
x#25#2                                              1 	(obj:0.06987)
x#26#4                                              1 	(obj:0.05865)
x#27#2                                              1 	(obj:0.0663)
x#28#2                                              1 	(obj:0.0374)
x#29#2                                              1 	(obj:0.05049)
x#30#5                                              1 	(obj:0.06239)
x#31#1                                              1 	(obj:0.05202)
x#32#3                                              1 	(obj:0.06035)
x#33#1                                              1 	(obj:0.05678)
x#34#5                                              1 	(obj:0.03553)
x#35#3                                              1 	(obj:0.00935)
x#36#3                                              1 	(obj:0.00782)
x#37#3                                              1 	(obj:0.04947)
x#38#2                                              1 	(obj:0.0527)
x#39#2                                              1 	(obj:0.05338)
x#40#5                                              1 	(obj:0.06953)
x#41#5                                              1 	(obj:0.03315)
x#42#1                                              1 	(obj:0.01309)
x#43#4                                              1 	(obj:0.05746)
x#44#5                                              1 	(obj:0.0221)
x#45#1                                              1 	(obj:0.0986)
x#46#4                                              1 	(obj:0.09979)
x#47#5                                              1 	(obj:0.04216)
x#48#3                                              1 	(obj:0.03978)
x#49#4                                              1 	(obj:0.07429)
x#50#1                                              1 	(obj:0.02567)
x#51#5                                              1 	(obj:0.05474)
x#52#4                                              1 	(obj:0.06477)
x#53#3                                              1 	(obj:0.03179)
x#54#5                                              1 	(obj:0.01224)
x#55#3                                              1 	(obj:0.01802)
x#56#4                                              1 	(obj:0.04845)
